Welcome to the CBC MILP Solver 
Version: Trunk
Build Date: Apr 16 2020 

Starting solution of the Linear programming relaxation problem using Primal Simplex

Using Python-MIP package version 1.8.1
Machines:  4 Jobs:  4
Order: 
Job  0 : machine 0 ( 10 ) machine 3 ( 1 ) machine 2 ( 6 ) machine 1 ( 7 ) 
Job  1 : machine 0 ( 1 ) machine 3 ( 7 ) machine 1 ( 5 ) machine 2 ( 8 ) 
Job  2 : machine 3 ( 9 ) machine 2 ( 3 ) machine 1 ( 7 ) machine 0 ( 1 ) 
Job  3 : machine 1 ( 7 ) machine 3 ( 3 ) machine 0 ( 9 ) machine 2 ( 10 ) 
K:  44
Job  0 , e: machine  0 ( 0 ) machine  1 ( 17 ) machine  2 ( 11 ) machine  3 ( 10 ) 
Job  1 , e: machine  0 ( 0 ) machine  1 ( 8 ) machine  2 ( 13 ) machine  3 ( 1 ) 
Job  2 , e: machine  0 ( 19 ) machine  1 ( 12 ) machine  2 ( 9 ) machine  3 ( 0 ) 
Job  3 , e: machine  0 ( 10 ) machine  1 ( 0 ) machine  2 ( 19 ) machine  3 ( 7 ) 
Job  0 , f: machine  0 ( 14 ) machine  1 ( 0 ) machine  2 ( 7 ) machine  3 ( 13 ) 
Job  1 , f: machine  0 ( 20 ) machine  1 ( 8 ) machine  2 ( 0 ) machine  3 ( 13 ) 
Job  2 , f: machine  0 ( 0 ) machine  1 ( 1 ) machine  2 ( 8 ) machine  3 ( 11 ) 
Job  3 , f: machine  0 ( 10 ) machine  1 ( 22 ) machine  2 ( 0 ) machine  3 ( 19 ) 
EST and LST:
Job: 0 Machine: 0 EST: 0 LST: 20
Job: 0 Machine: 1 EST: 17 LST: 37
Job: 0 Machine: 2 EST: 11 LST: 31
Job: 0 Machine: 3 EST: 10 LST: 30
Job: 1 Machine: 0 EST: 0 LST: 23
Job: 1 Machine: 1 EST: 8 LST: 31
Job: 1 Machine: 2 EST: 13 LST: 36
Job: 1 Machine: 3 EST: 1 LST: 24
Job: 2 Machine: 0 EST: 19 LST: 43
Job: 2 Machine: 1 EST: 12 LST: 36
Job: 2 Machine: 2 EST: 9 LST: 33
Job: 2 Machine: 3 EST: 0 LST: 24
Job: 3 Machine: 0 EST: 10 LST: 25
Job: 3 Machine: 1 EST: 0 LST: 15
Job: 3 Machine: 2 EST: 19 LST: 34
Job: 3 Machine: 3 EST: 7 LST: 22
Order:
Job: 0 Machine: 0 = 0 
Job: 0 Machine: 1 = 3 
Job: 0 Machine: 2 = 2 
Job: 0 Machine: 3 = 1 
Job: 1 Machine: 0 = 0 
Job: 1 Machine: 1 = 2 
Job: 1 Machine: 2 = 3 
Job: 1 Machine: 3 = 1 
Job: 2 Machine: 0 = 3 
Job: 2 Machine: 1 = 2 
Job: 2 Machine: 2 = 1 
Job: 2 Machine: 3 = 0 
Job: 3 Machine: 0 = 2 
Job: 3 Machine: 1 = 0 
Job: 3 Machine: 2 = 3 
Job: 3 Machine: 3 = 1 
Distances:
Job 0, Machine 0 -> Machine 3: distance 10
Job 0, Machine 0 -> Machine 2: distance 11
Job 0, Machine 0 -> Machine 1: distance 17
Job 0, Machine 3 -> Machine 2: distance 1
Job 0, Machine 3 -> Machine 1: distance 7
Job 0, Machine 2 -> Machine 1: distance 6
Job 1, Machine 0 -> Machine 3: distance 1
Job 1, Machine 0 -> Machine 1: distance 8
Job 1, Machine 0 -> Machine 2: distance 13
Job 1, Machine 3 -> Machine 1: distance 7
Job 1, Machine 3 -> Machine 2: distance 12
Job 1, Machine 1 -> Machine 2: distance 5
Job 2, Machine 3 -> Machine 2: distance 9
Job 2, Machine 3 -> Machine 1: distance 12
Job 2, Machine 3 -> Machine 0: distance 19
Job 2, Machine 2 -> Machine 1: distance 3
Job 2, Machine 2 -> Machine 0: distance 10
Job 2, Machine 1 -> Machine 0: distance 7
Job 3, Machine 1 -> Machine 3: distance 7
Job 3, Machine 1 -> Machine 0: distance 10
Job 3, Machine 1 -> Machine 2: distance 19
Job 3, Machine 3 -> Machine 0: distance 3
Job 3, Machine 3 -> Machine 2: distance 12
Job 3, Machine 0 -> Machine 2: distance 9
McCormic linearization
19.0 13.0 7
14.0 13.0 7
19.0 19.0 10
10.0 7.0 7
7.0 1.0 9
[(0, 1), (1, 2), (3, 2), (0, 0), (1, 3), (2, 1), (1, 0), (0, 3)]
obj:  0.6000000000000001
solutions:  1
+ x(0,0) + 0.1x(1,0) 
C:  29.0
x(0,0) = 0.40	 x(0,1) = 19.00	 x(0,2) = 13.00	 x(0,3) = 10.40	 
x(1,0) = 6.00	 x(1,1) = 14.00	 x(1,2) = 19.00	 x(1,3) = 7.00	 
x(2,0) = 20.40	 x(2,1) = 13.40	 x(2,2) = 10.40	 x(2,3) = 1.40	 
x(3,0) = 10.00	 x(3,1) = 0.00	 x(3,2) = 19.00	 x(3,3) = 7.00	 
y(0,1,0) = 0.28	 y(1,0,0) = 0.72	 
y(0,2,0) = 0.48	 y(2,0,0) = 0.52	 
y(0,3,0) = 0.98	 y(3,0,0) = 0.02	 
y(1,2,0) = 0.35	 y(2,1,0) = 0.65	 
y(1,3,0) = 0.87	 y(3,1,0) = 0.13	 
y(2,3,0) = 0.00	 y(3,2,0) = 1.00	 
y(0,1,1) = 0.00	 y(1,0,1) = 1.00	 
y(0,2,1) = 0.05	 y(2,0,1) = 0.95	 
y(0,3,1) = 0.00	 y(3,0,1) = 1.00	 
y(1,2,1) = 0.18	 y(2,1,1) = 0.82	 
y(1,3,1) = 0.29	 y(3,1,1) = 0.71	 
y(2,3,1) = 0.00	 y(3,2,1) = 1.00	 
y(0,1,2) = 0.42	 y(1,0,2) = 0.58	 
y(0,2,2) = 0.02	 y(2,0,2) = 0.98	 
y(0,3,2) = 1.00	 y(3,0,2) = 0.00	 
y(1,2,2) = 0.00	 y(2,1,2) = 1.00	 
y(1,3,2) = 0.32	 y(3,1,2) = 0.68	 
y(2,3,2) = 0.75	 y(3,2,2) = 0.25	 
y(0,1,3) = 0.17	 y(1,0,3) = 0.83	 
y(0,2,3) = 0.00	 y(2,0,3) = 1.00	 
y(0,3,3) = 0.00	 y(3,0,3) = 1.00	 
y(1,2,3) = 0.11	 y(2,1,3) = 0.89	 
y(1,3,3) = 0.13	 y(3,1,3) = 0.87	 
y(2,3,3) = 0.34	 y(3,2,3) = 0.66	 
19.0 13.400000000000002 7
14.0 13.400000000000002 7
13.0 10.400000000000002 3
19.0 19.0 10
10.4 7.0 7
7.0 1.4000000000000015 9
obj:  0.9174311926605506
solutions:  1
+ 0.09174311926605473x(0,0) + 0.08256880733944957x(3,0) + 0.009174311926605483x(1,0) 
[(0, 1), (3, 2), (0, 0), (3, 0), (2, 1), (2, 2), (1, 0), (0, 2)]
cliques:  1 mip: 0
C:  29.0
x(0,0) = 1.30	 x(0,1) = 19.00	 x(0,2) = 13.00	 x(0,3) = 11.30	 
x(1,0) = 6.00	 x(1,1) = 14.00	 x(1,2) = 19.00	 x(1,3) = 7.00	 
x(2,0) = 21.30	 x(2,1) = 14.30	 x(2,2) = 11.30	 x(2,3) = 2.30	 
x(3,0) = 10.00	 x(3,1) = 0.00	 x(3,2) = 19.00	 x(3,3) = 7.00	 
y(0,1,0) = 0.24	 y(1,0,0) = 0.76	 
y(0,2,0) = 0.48	 y(2,0,0) = 0.52	 
y(0,3,0) = 0.93	 y(3,0,0) = 0.07	 
y(1,2,0) = 0.37	 y(2,1,0) = 0.63	 
y(1,3,0) = 0.87	 y(3,1,0) = 0.13	 
y(2,3,0) = 0.00	 y(3,2,0) = 1.00	 
y(0,1,1) = 0.00	 y(1,0,1) = 1.00	 
y(0,2,1) = 0.09	 y(2,0,1) = 0.91	 
y(0,3,1) = 0.00	 y(3,0,1) = 1.00	 
y(1,2,1) = 0.21	 y(2,1,1) = 0.79	 
y(1,3,1) = 0.29	 y(3,1,1) = 0.71	 
y(2,3,1) = 0.00	 y(3,2,1) = 1.00	 
y(0,1,2) = 0.42	 y(1,0,2) = 0.58	 
y(0,2,2) = 0.05	 y(2,0,2) = 0.95	 
y(0,3,2) = 1.00	 y(3,0,2) = 0.00	 
y(1,2,2) = 0.00	 y(2,1,2) = 1.00	 
y(1,3,2) = 0.32	 y(3,1,2) = 0.68	 
y(2,3,2) = 0.79	 y(3,2,2) = 0.21	 
y(0,1,3) = 0.13	 y(1,0,3) = 0.87	 
y(0,2,3) = 0.00	 y(2,0,3) = 1.00	 
y(0,3,3) = 0.00	 y(3,0,3) = 1.00	 
y(1,2,3) = 0.13	 y(2,1,3) = 0.87	 
y(1,3,3) = 0.13	 y(3,1,3) = 0.87	 
y(2,3,3) = 0.31	 y(3,2,3) = 0.69	 
19.0 14.300000000000004 7
13.0 11.300000000000004 3
19.0 19.0 10
11.300000000000002 7.0 7
7.0 2.3000000000000034 9
obj:  0.9412060301507538
solutions:  1
+ 0.005025125628140697x(0,0) + 0.09045226130653268x(3,0) + 0.0050251256281406914x(1,0) 
[(0, 1), (3, 2), (0, 0), (3, 0), (2, 1), (2, 2), (1, 0), (0, 2)]
cliques:  1 mip: 0
C:  29.29999999999999
x(0,0) = 5.30	 x(0,1) = 22.30	 x(0,2) = 16.30	 x(0,3) = 15.30	 
x(1,0) = 8.30	 x(1,1) = 16.30	 x(1,2) = 21.30	 x(1,3) = 9.30	 
x(2,0) = 25.30	 x(2,1) = 18.30	 x(2,2) = 15.30	 x(2,3) = 6.30	 
x(3,0) = 10.30	 x(3,1) = 0.00	 x(3,2) = 19.30	 x(3,3) = 7.00	 
y(0,1,0) = 0.17	 y(1,0,0) = 0.83	 
y(0,2,0) = 0.48	 y(2,0,0) = 0.52	 
y(0,3,0) = 0.75	 y(3,0,0) = 0.25	 
y(1,2,0) = 0.41	 y(2,1,0) = 0.59	 
y(1,3,0) = 0.96	 y(3,1,0) = 0.04	 
y(2,3,0) = 0.00	 y(3,2,0) = 1.00	 
y(0,1,1) = 0.04	 y(1,0,1) = 0.96	 
y(0,2,1) = 0.12	 y(2,0,1) = 0.88	 
y(0,3,1) = 0.00	 y(3,0,1) = 1.00	 
y(1,2,1) = 0.26	 y(2,1,1) = 0.74	 
y(1,3,1) = 0.39	 y(3,1,1) = 0.61	 
y(2,3,1) = 0.00	 y(3,2,1) = 1.00	 
y(0,1,2) = 0.39	 y(1,0,2) = 0.61	 
y(0,2,2) = 0.08	 y(2,0,2) = 0.92	 
y(0,3,2) = 0.83	 y(3,0,2) = 0.17	 
y(1,2,2) = 0.00	 y(2,1,2) = 1.00	 
y(1,3,2) = 0.26	 y(3,1,2) = 0.74	 
y(2,3,2) = 0.95	 y(3,2,2) = 0.05	 
y(0,1,3) = 0.05	 y(1,0,3) = 0.95	 
y(0,2,3) = 0.00	 y(2,0,3) = 1.00	 
y(0,3,3) = 0.00	 y(3,0,3) = 1.00	 
y(1,2,3) = 0.19	 y(2,1,3) = 0.81	 
y(1,3,3) = 0.03	 y(3,1,3) = 0.97	 
y(2,3,3) = 0.15	 y(3,2,3) = 0.85	 
22.29999999999999 18.29999999999999 7
16.29999999999999 15.29999999999999 3
21.29999999999999 19.299999999999997 10
15.29999999999999 9.29999999999999 7
9.29999999999999 6.29999999999999 9
obj:  0.9999999999999997
erro
[(0, 1), (1, 2), (0, 0), (3, 0), (2, 1), (2, 2), (1, 0), (0, 2)]
cliques:  0 mip: 0
iterações: 3 cortes cliques encontrados: 3 mip: 0 objective:  29.29999999999999
Coin0506I Presolve 157 (-171) rows, 90 (-71) columns and 490 (-260) elements
Clp1000I sum of infeasibilities 1.79124e-08 - average 1.14092e-10, 0 fixed columns
Coin0506I Presolve 157 (0) rows, 90 (0) columns and 490 (0) elements
Clp0029I End of values pass after 90 iterations
Clp0000I Optimal - objective value 29
Clp0000I Optimal - objective value 29
Coin0511I After Postsolve, objective 29, infeasibilities - dual 0 (0), primal 0 (0)
Clp0000I Optimal - objective value 29
Clp0000I Optimal - objective value 29
Clp0000I Optimal - objective value 29
Coin0511I After Postsolve, objective 29, infeasibilities - dual 0 (0), primal 0 (0)
Clp0032I Optimal objective 29 - 0 iterations time 0.012, Presolve 0.00, Idiot 0.01
Coin3009W Conflict graph built in 0.000 seconds, density: 0.163%
